\ This file has been generated by DOcplex
\ ENCODING=ISO-8859-1
\Problem name: random_problem.lp

Minimize
 obj: 10 x0 - 3 x1 - 5 x2 + 10 x3 - 2 x4 - 9 x5 + 8 x6 - 5 x7 + 10 x8 + 10 x9
      + 5 x10 + 6 x11 - 9 x12 + 6 x13 - 8 x14 + 3 x15 + 7 x16 - 7 x17 - 2 x18
      - x19 + 10 x20 + 5 x21 - 10 x22 + 7 x23 - 9 x24 + 8 x25 + 7 x26 + 4 x27
      - 5 x28 + 9 x29 - 5 x30 - 9 x31 - 10 x32 + 5 x33 - 2 x34 + 2 x35 + 4 x36
      - x37 - 4 x38 - 3 x39 - 4 x40 + 5 x41 - 9 x42 - 5 x43 + 10 x44 - 9 x45
      + 5 x46 - 6 x47 + x48 + 4 x49 - x50 - 3 x51 + 2 x52 - 4 x53 + 6 x54
      - 8 x55 - 9 x56 - 10 x57 + 6 x58 + [ - 16 x0*x11 - 16 x0*x12 + 8 x0*x13
      - 8 x0*x16 + 2 x0*x17 + 4 x0*x31 + 12 x0*x40 + 2 x0*x48 - 6 x0*x54
      + 18 x0*x57 + 4 x1*x3 + 8 x1*x5 - 16 x1*x19 - 12 x1*x39 - 6 x1*x41
      + 4 x1*x43 + 14 x1*x44 + 4 x1*x49 - 20 x1*x54 - 10 x1*x56 + 18 x2*x11
      + 16 x2*x14 - 18 x2*x25 + 2 x2*x27 - 14 x2*x29 + 12 x2*x34 + 20 x2*x35
      + 8 x2*x45 + 18 x2*x47 - 6 x2*x58 - 10 x3*x4 - 16 x3*x8 - 10 x3*x10
      + 16 x3*x23 + 2 x3*x42 + 8 x3*x52 + 18 x3*x53 - 14 x3*x56 + 16 x3*x59
      - 12 x4*x6 + 14 x4*x10 - 10 x4*x13 - 20 x4*x15 - 16 x4*x19 + 4 x4*x25
      + 8 x4*x36 - 12 x4*x37 - 20 x4*x43 + 14 x5*x6 + 4 x5*x14 + 10 x5*x24
      - 6 x5*x28 + 12 x5*x31 - 6 x5*x45 + 14 x5*x54 - 18 x5*x55 - 10 x5*x59
      - 8 x6*x7 - 6 x6*x10 - 14 x6*x25 + 20 x6*x27 + 20 x6*x31 - 12 x6*x32
      + 18 x6*x43 + 6 x6*x53 - 20 x7*x8 - 20 x7*x21 + 16 x7*x28 + 18 x7*x29
      - 10 x7*x30 - 12 x7*x41 - 18 x7*x47 + 6 x7*x52 + 8 x7*x56 - 6 x8*x11
      - 4 x8*x19 - 14 x8*x24 + 2 x8*x31 + 20 x8*x47 - 18 x8*x51 + 18 x8*x52
      + 6 x8*x55 - 14 x9*x15 - 16 x9*x23 + 16 x9*x25 + 2 x9*x27 + 12 x9*x29
      + 10 x9*x34 + 10 x9*x41 + 10 x9*x52 + 6 x9*x53 + 12 x9*x58 - 16 x10*x13
      + 6 x10*x19 + 6 x10*x20 - 12 x10*x32 - 6 x10*x40 - 14 x10*x44 - 10 x10*x45
      + 20 x11*x14 - 4 x11*x20 - 12 x11*x24 - 10 x11*x28 - 6 x11*x32
      - 12 x11*x40 + 18 x11*x51 + 20 x12*x17 - 2 x12*x20 + 10 x12*x30
      + 6 x12*x33 + 20 x12*x35 - 4 x12*x45 - 10 x12*x48 - 12 x12*x49
      + 14 x12*x52 - 8 x13*x21 + 8 x13*x26 + 6 x13*x30 + 8 x13*x40 + 14 x13*x44
      - 14 x13*x51 + 6 x13*x56 - 6 x14*x20 - 14 x14*x23 + 8 x14*x30 - 20 x14*x35
      + 18 x14*x43 - 14 x14*x47 + 8 x14*x49 + 8 x15*x26 - 20 x15*x28 - 6 x15*x36
      - 10 x15*x37 - 14 x15*x42 + 14 x15*x44 + 2 x15*x46 + 16 x15*x47
      + 2 x16*x22 + 12 x16*x32 - 18 x16*x34 + 6 x16*x39 - 4 x16*x45 - 12 x16*x48
      - 8 x16*x53 - 4 x16*x55 + 12 x16*x57 - 16 x17*x20 - 16 x17*x29 - 8 x17*x35
      + 12 x17*x38 + 14 x17*x42 + 16 x17*x48 - 10 x17*x58 - 12 x17*x59
      - 20 x18*x22 + 2 x18*x23 - 4 x18*x25 + 8 x18*x28 + 20 x18*x29 - 12 x18*x34
      - 18 x18*x39 + 16 x18*x41 - 8 x18*x45 + 14 x18*x58 - 10 x19*x33
      + 20 x19*x40 - 12 x19*x42 - 16 x19*x43 - 10 x19*x54 - 8 x19*x58
      + 10 x20*x21 - 18 x20*x26 + 16 x20*x38 - 16 x20*x47 - 20 x20*x58
      - 6 x21*x34 + 2 x21*x36 - 10 x21*x38 + 16 x21*x50 - 6 x21*x55 + 16 x21*x58
      + 14 x21*x59 - 12 x22*x32 - 2 x22*x34 - 4 x22*x35 - 8 x22*x38 + 20 x22*x41
      - 4 x22*x43 + 10 x22*x49 - 16 x22*x56 - 2 x23*x35 + 12 x23*x40
      + 20 x23*x43 + 4 x23*x47 + 18 x23*x48 + 14 x23*x58 - 6 x24*x26 + 6 x24*x30
      - 16 x24*x33 - 18 x24*x37 + 8 x24*x42 - 20 x24*x47 + 2 x24*x56 - 8 x25*x28
      + 2 x25*x31 - 8 x25*x34 + 16 x25*x36 - 10 x25*x58 + 2 x26*x35 + 18 x26*x39
      + 18 x26*x41 + 14 x26*x46 + 14 x26*x55 - 2 x26*x57 - 10 x27*x37
      - 16 x27*x38 + 8 x27*x43 - 2 x27*x44 - 2 x27*x51 - 14 x27*x53 - 4 x27*x54
      - 4 x28*x29 + 20 x28*x39 - 18 x28*x46 - 4 x28*x51 - 16 x29*x33 + 8 x29*x40
      + 16 x29*x41 + 18 x29*x49 - 16 x30*x38 - 8 x30*x44 - 16 x30*x46
      - 16 x30*x49 + 18 x30*x59 + 2 x31*x33 - 14 x31*x37 - 8 x31*x42
      + 12 x31*x48 + 18 x31*x50 + 2 x32*x35 + 10 x32*x40 - 12 x32*x44
      - 10 x32*x52 - 6 x32*x53 - 16 x33*x36 - 18 x33*x48 + 2 x33*x51
      - 16 x33*x54 - 20 x33*x56 - 10 x34*x43 + 6 x34*x44 - 18 x34*x56
      + 10 x35*x39 - 18 x35*x54 + 18 x36*x39 + 12 x36*x41 - 18 x36*x48
      + 4 x36*x52 - 18 x36*x57 - 4 x37*x38 + 12 x37*x45 - 12 x37*x49 + 4 x37*x50
      - 10 x37*x59 - 16 x38*x39 + 14 x38*x55 - 14 x38*x57 + 18 x39*x40
      - 20 x39*x56 - 8 x40*x50 + 18 x41*x45 + 6 x41*x53 + 20 x42*x51 + 4 x42*x53
      + 16 x42*x56 - 14 x42*x59 - 8 x43*x50 - 20 x44*x54 + 10 x44*x57
      - 18 x45*x57 + 14 x45*x58 - 6 x46*x47 - 14 x46*x50 + 12 x46*x51
      + 10 x46*x52 - 4 x46*x53 + 4 x46*x55 - 20 x47*x51 + 8 x48*x50 + 8 x48*x54
      + 12 x49*x50 + 8 x49*x52 - 4 x49*x54 - 2 x50*x55 + 18 x50*x59 - 14 x51*x57
      - 2 x52*x57 + 18 x53*x55 + 2 x55*x59 + 16 x57*x59 ]/2
Subject To
 c0: x0 - 2 x4 - x8 - 2 x13 - 2 x21 - x22 + x25 - 2 x30 - 2 x33 + x54 = 0
 c1: 2 x0 - x4 + 2 x6 + x11 - 2 x16 + x32 - x38 + x39 - x47 + x58 = -1
 c2: x4 + x18 + x20 - 2 x27 + 2 x36 + 2 x41 - x44 + 2 x49 + x52 + x53 = 1
 c3: - x4 + 2 x5 - x6 + x21 - x32 + x42 - 2 x43 - x48 - x50 - x53 = -1
 c4: 2 x4 - 2 x9 + 2 x19 + x26 - 2 x28 + 2 x31 - 2 x44 + x45 + 2 x50 + 2 x59 = 
     -2
 c5: - x9 + x12 - 2 x13 + x18 - 2 x25 + 2 x31 + x33 + 2 x40 + 2 x44 + 2 x45 = 
     -1
 c6: 2 x0 + x4 + 2 x9 + 2 x11 - x21 - 2 x39 + 2 x47 + x51 - x52 - 2 x58 = 0
 c7: x1 + x2 + 2 x4 + 2 x9 - 2 x15 + x27 + x29 - x38 + x40 + x46 = -1
 c8: x1 - 2 x2 - x7 + x16 - 2 x27 - 2 x29 - x33 + x37 - 2 x58 + x59 = -2
 c9: x1 - 2 x3 + x25 + 2 x38 - x39 + 2 x40 + x41 - 2 x46 + 2 x48 + x54 = -1
 c10: - x3 - 2 x5 + x6 + x11 - x14 + 2 x15 + 2 x19 - x39 + 2 x46 - 2 x57 = -1
 c11: - 2 x1 + 2 x2 + 2 x5 + x17 - 2 x23 - x25 - 2 x28 - x37 + 2 x40 - 2 x43 = 
      -1

Bounds
 0 <= x0 <= 1
 0 <= x1 <= 1
 0 <= x2 <= 1
 0 <= x3 <= 1
 0 <= x4 <= 1
 0 <= x5 <= 1
 0 <= x6 <= 1
 0 <= x7 <= 1
 0 <= x8 <= 1
 0 <= x9 <= 1
 0 <= x10 <= 1
 0 <= x11 <= 1
 0 <= x12 <= 1
 0 <= x13 <= 1
 0 <= x14 <= 1
 0 <= x15 <= 1
 0 <= x16 <= 1
 0 <= x17 <= 1
 0 <= x18 <= 1
 0 <= x19 <= 1
 0 <= x20 <= 1
 0 <= x21 <= 1
 0 <= x22 <= 1
 0 <= x23 <= 1
 0 <= x24 <= 1
 0 <= x25 <= 1
 0 <= x26 <= 1
 0 <= x27 <= 1
 0 <= x28 <= 1
 0 <= x29 <= 1
 0 <= x30 <= 1
 0 <= x31 <= 1
 0 <= x32 <= 1
 0 <= x33 <= 1
 0 <= x34 <= 1
 0 <= x35 <= 1
 0 <= x36 <= 1
 0 <= x37 <= 1
 0 <= x38 <= 1
 0 <= x39 <= 1
 0 <= x40 <= 1
 0 <= x41 <= 1
 0 <= x42 <= 1
 0 <= x43 <= 1
 0 <= x44 <= 1
 0 <= x45 <= 1
 0 <= x46 <= 1
 0 <= x47 <= 1
 0 <= x48 <= 1
 0 <= x49 <= 1
 0 <= x50 <= 1
 0 <= x51 <= 1
 0 <= x52 <= 1
 0 <= x53 <= 1
 0 <= x54 <= 1
 0 <= x55 <= 1
 0 <= x56 <= 1
 0 <= x57 <= 1
 0 <= x58 <= 1
 0 <= x59 <= 1

Binaries
 x0 x1 x2 x3 x4 x5 x6 x7 x8 x9 x10 x11 x12 x13 x14 x15 x16 x17 x18 x19 x20 x21
 x22 x23 x24 x25 x26 x27 x28 x29 x30 x31 x32 x33 x34 x35 x36 x37 x38 x39 x40 x41
 x42 x43 x44 x45 x46 x47 x48 x49 x50 x51 x52 x53 x54 x55 x56 x57 x58 x59
End
